Route #1: 33 56 44 55 62
Route #2: 43 14 27 4 5 18 12 57 48 51
Route #3: 25 8 40 58 61 20 32
Route #4: 17 64 6 46 31 15
Route #5: 45 42 38 2 41 16 50 60
Route #6: 54 11 39 47 26 22 9 34
Route #7: 49 30 37 35 36 3
Route #8: 29 24 10 59 53 21
Route #9: 28 19 52 13 1 23 63 7
cost 1528.0181884765625